results/res_prop_muc/res_Cimatti_mathsat_cores/QF_UF/SEQ035_size4.smt.smt2.out

real	0m0.231s
user	0m0.183s
sys	0m0.015s
